p cnf 966 2481
51 -699 -700 0
-51 699 0
-51 700 0
52 -51 -3 0
-52 51 0
-52 3 0
53 -701 -4 0
-53 701 0
-53 4 0
54 -53 -6 0
-54 53 0
-54 6 0
55 -702 -703 0
-55 702 0
-55 703 0
56 -704 -7 0
-56 704 0
-56 7 0
57 -56 -705 0
-57 56 0
-57 705 0
58 -706 -55 0
-58 706 0
-58 55 0
59 -707 -10 0
-59 707 0
-59 10 0
60 -59 -708 0
-60 59 0
-60 708 0
61 -709 -58 0
-61 709 0
-61 58 0
62 -710 -7 0
-62 710 0
-62 7 0
63 -62 -711 0
-63 62 0
-63 711 0
64 -712 -61 0
-64 712 0
-64 61 0
65 -713 -14 0
-65 713 0
-65 14 0
66 -65 -701 0
-66 65 0
-66 701 0
67 -714 -64 0
-67 714 0
-67 64 0
68 -17 -715 0
-68 17 0
-68 715 0
69 -68 -8 0
-69 68 0
-69 8 0
70 -716 -67 0
-70 716 0
-70 67 0
71 -19 -18 0
-71 19 0
-71 18 0
72 -71 -3 0
-72 71 0
-72 3 0
73 -717 -70 0
-73 717 0
-73 70 0
74 -21 -20 0
-74 21 0
-74 20 0
75 -74 -15 0
-75 74 0
-75 15 0
76 -718 -73 0
-76 718 0
-76 73 0
77 -23 -22 0
-77 23 0
-77 22 0
78 -77 -707 0
-78 77 0
-78 707 0
79 -719 -76 0
-79 719 0
-79 76 0
80 -720 -16 0
-80 720 0
-80 16 0
81 -80 -721 0
-81 80 0
-81 721 0
82 -722 -79 0
-82 722 0
-82 79 0
83 -723 -18 0
-83 723 0
-83 18 0
84 -83 -724 0
-84 83 0
-84 724 0
85 -725 -82 0
-85 725 0
-85 82 0
86 -724 -25 0
-86 724 0
-86 25 0
87 -86 -704 0
-87 86 0
-87 704 0
88 -726 -85 0
-88 726 0
-88 85 0
89 -28 -27 0
-89 28 0
-89 27 0
90 -89 -29 0
-90 89 0
-90 29 0
91 -727 -88 0
-91 727 0
-91 88 0
92 -24 -711 0
-92 24 0
-92 711 0
93 -92 -728 0
-93 92 0
-93 728 0
94 -729 -91 0
-94 729 0
-94 91 0
95 -31 -9 0
-95 31 0
-95 9 0
96 -95 -730 0
-96 95 0
-96 730 0
97 -731 -94 0
-97 731 0
-97 94 0
98 -32 -10 0
-98 32 0
-98 10 0
99 -98 -730 0
-99 98 0
-99 730 0
100 -732 -97 0
-100 732 0
-100 97 0
101 -13 -708 0
-101 13 0
-101 708 0
102 -101 -733 0
-102 101 0
-102 733 0
103 -734 -100 0
-103 734 0
-103 100 0
104 -735 -736 0
-104 735 0
-104 736 0
105 -104 -24 0
-105 104 0
-105 24 0
106 -737 -103 0
-106 737 0
-106 103 0
107 -738 -1 0
-107 738 0
-107 1 0
108 -107 -35 0
-108 107 0
-108 35 0
109 -739 -106 0
-109 739 0
-109 106 0
110 -735 -4 0
-110 735 0
-110 4 0
111 -110 -699 0
-111 110 0
-111 699 0
112 -740 -109 0
-112 740 0
-112 109 0
113 -741 -742 0
-113 741 0
-113 742 0
114 -113 -38 0
-114 113 0
-114 38 0
115 -743 -112 0
-115 743 0
-115 112 0
116 -7 -744 0
-116 7 0
-116 744 0
117 -116 -37 0
-117 116 0
-117 37 0
118 -745 -115 0
-118 745 0
-118 115 0
119 -38 -7 0
-119 38 0
-119 7 0
120 -119 -707 0
-120 119 0
-120 707 0
121 -746 -118 0
-121 746 0
-121 118 0
122 -39 -35 0
-122 39 0
-122 35 0
123 -122 -33 0
-123 122 0
-123 33 0
124 -747 -121 0
-124 747 0
-124 121 0
125 -25 -7 0
-125 25 0
-125 7 0
126 -125 -34 0
-126 125 0
-126 34 0
127 -748 -124 0
-127 748 0
-127 124 0
128 -749 -704 0
-128 749 0
-128 704 0
129 -128 -750 0
-129 128 0
-129 750 0
130 -751 -127 0
-130 751 0
-130 127 0
131 -724 -752 0
-131 724 0
-131 752 0
132 -131 -9 0
-132 131 0
-132 9 0
133 -753 -130 0
-133 753 0
-133 130 0
134 -98 -20 0
-134 98 0
-134 20 0
135 -754 -133 0
-135 754 0
-135 133 0
136 -723 -738 0
-136 723 0
-136 738 0
137 -136 -755 0
-137 136 0
-137 755 0
138 -756 -135 0
-138 756 0
-138 135 0
139 -757 -13 0
-139 757 0
-139 13 0
140 -139 -713 0
-140 139 0
-140 713 0
141 -758 -138 0
-141 758 0
-141 138 0
142 -759 -760 0
-142 759 0
-142 760 0
143 -142 -26 0
-143 142 0
-143 26 0
144 -761 -141 0
-144 761 0
-144 141 0
145 -724 -7 0
-145 724 0
-145 7 0
146 -145 -762 0
-146 145 0
-146 762 0
147 -763 -144 0
-147 763 0
-147 144 0
148 -759 -25 0
-148 759 0
-148 25 0
149 -148 -29 0
-149 148 0
-149 29 0
150 -764 -147 0
-150 764 0
-150 147 0
151 -736 -699 0
-151 736 0
-151 699 0
152 -151 -30 0
-152 151 0
-152 30 0
153 -765 -150 0
-153 765 0
-153 150 0
154 -30 -13 0
-154 30 0
-154 13 0
155 -154 -766 0
-155 154 0
-155 766 0
156 -767 -153 0
-156 767 0
-156 153 0
157 -32 -768 0
-157 32 0
-157 768 0
158 -157 -24 0
-158 157 0
-158 24 0
159 -769 -156 0
-159 769 0
-159 156 0
160 -9 -2 0
-160 9 0
-160 2 0
161 -160 -770 0
-161 160 0
-161 770 0
162 -771 -159 0
-162 771 0
-162 159 0
163 -26 -772 0
-163 26 0
-163 772 0
164 -163 -728 0
-164 163 0
-164 728 0
165 -773 -162 0
-165 773 0
-165 162 0
166 -774 -775 0
-166 774 0
-166 775 0
167 -166 -7 0
-167 166 0
-167 7 0
168 -776 -165 0
-168 776 0
-168 165 0
169 -710 -2 0
-169 710 0
-169 2 0
170 -169 -777 0
-170 169 0
-170 777 0
171 -778 -168 0
-171 778 0
-171 168 0
172 -24 -13 0
-172 24 0
-172 13 0
173 -172 -6 0
-173 172 0
-173 6 0
174 -779 -171 0
-174 779 0
-174 171 0
175 -741 -28 0
-175 741 0
-175 28 0
176 -175 -2 0
-176 175 0
-176 2 0
177 -780 -174 0
-177 780 0
-177 174 0
178 -777 -10 0
-178 777 0
-178 10 0
179 -178 -733 0
-179 178 0
-179 733 0
180 -781 -177 0
-180 781 0
-180 177 0
181 -15 -699 0
-181 15 0
-181 699 0
182 -181 -762 0
-182 181 0
-182 762 0
183 -782 -180 0
-183 782 0
-183 180 0
184 -783 -41 0
-184 783 0
-184 41 0
185 -184 -45 0
-185 184 0
-185 45 0
186 -784 -183 0
-186 784 0
-186 183 0
187 -785 -705 0
-187 785 0
-187 705 0
188 -187 -6 0
-188 187 0
-188 6 0
189 -786 -186 0
-189 786 0
-189 186 0
190 -46 -23 0
-190 46 0
-190 23 0
191 -190 -33 0
-191 190 0
-191 33 0
192 -787 -189 0
-192 787 0
-192 189 0
193 -23 -700 0
-193 23 0
-193 700 0
194 -193 -750 0
-194 193 0
-194 750 0
195 -788 -192 0
-195 788 0
-195 192 0
196 -44 -7 0
-196 44 0
-196 7 0
197 -196 -12 0
-197 196 0
-197 12 0
198 -789 -195 0
-198 789 0
-198 195 0
199 -34 -790 0
-199 34 0
-199 790 0
200 -199 -701 0
-200 199 0
-200 701 0
201 -791 -198 0
-201 791 0
-201 198 0
202 -40 -744 0
-202 40 0
-202 744 0
203 -202 -23 0
-203 202 0
-203 23 0
204 -792 -201 0
-204 792 0
-204 201 0
205 -774 -741 0
-205 774 0
-205 741 0
206 -205 -724 0
-206 205 0
-206 724 0
207 -793 -204 0
-207 793 0
-207 204 0
208 -29 -18 0
-208 29 0
-208 18 0
209 -208 -45 0
-209 208 0
-209 45 0
210 -794 -207 0
-210 794 0
-210 207 0
211 -44 -3 0
-211 44 0
-211 3 0
212 -211 -33 0
-212 211 0
-212 33 0
213 -795 -210 0
-213 795 0
-213 210 0
214 -23 -755 0
-214 23 0
-214 755 0
215 -214 -733 0
-215 214 0
-215 733 0
216 -796 -213 0
-216 796 0
-216 213 0
217 -21 -715 0
-217 21 0
-217 715 0
218 -217 -770 0
-218 217 0
-218 770 0
219 -797 -216 0
-219 797 0
-219 216 0
220 -13 -7 0
-220 13 0
-220 7 0
221 -220 -21 0
-221 220 0
-221 21 0
222 -798 -219 0
-222 798 0
-222 219 0
223 -715 -713 0
-223 715 0
-223 713 0
224 -223 -711 0
-224 223 0
-224 711 0
225 -799 -222 0
-225 799 0
-225 222 0
226 -800 -41 0
-226 800 0
-226 41 0
227 -226 -38 0
-227 226 0
-227 38 0
228 -801 -225 0
-228 801 0
-228 225 0
229 -724 -699 0
-229 724 0
-229 699 0
230 -229 -9 0
-230 229 0
-230 9 0
231 -802 -228 0
-231 802 0
-231 228 0
232 -40 -707 0
-232 40 0
-232 707 0
233 -232 -803 0
-233 232 0
-233 803 0
234 -804 -231 0
-234 804 0
-234 231 0
235 -710 -1 0
-235 710 0
-235 1 0
236 -235 -790 0
-236 235 0
-236 790 0
237 -805 -234 0
-237 805 0
-237 234 0
238 -34 -1 0
-238 34 0
-238 1 0
239 -238 -705 0
-239 238 0
-239 705 0
240 -806 -237 0
-240 806 0
-240 237 0
241 -749 -772 0
-241 749 0
-241 772 0
242 -241 -4 0
-242 241 0
-242 4 0
243 -807 -240 0
-243 807 0
-243 240 0
244 -800 -24 0
-244 800 0
-244 24 0
245 -244 -48 0
-245 244 0
-245 48 0
246 -808 -243 0
-246 808 0
-246 243 0
247 -775 -699 0
-247 775 0
-247 699 0
248 -247 -24 0
-248 247 0
-248 24 0
249 -809 -246 0
-249 809 0
-249 246 0
250 -34 -21 0
-250 34 0
-250 21 0
251 -250 -33 0
-251 250 0
-251 33 0
252 -810 -249 0
-252 810 0
-252 249 0
253 -47 -5 0
-253 47 0
-253 5 0
254 -253 -33 0
-254 253 0
-254 33 0
255 -811 -252 0
-255 811 0
-255 252 0
256 -728 -7 0
-256 728 0
-256 7 0
257 -256 -803 0
-257 256 0
-257 803 0
258 -812 -255 0
-258 812 0
-258 255 0
259 -813 -32 0
-259 813 0
-259 32 0
260 -259 -701 0
-260 259 0
-260 701 0
261 -814 -258 0
-261 814 0
-261 258 0
262 -49 -749 0
-262 49 0
-262 749 0
263 -262 -42 0
-263 262 0
-263 42 0
264 -815 -261 0
-264 815 0
-264 261 0
265 -816 -711 0
-265 816 0
-265 711 0
266 -265 -705 0
-266 265 0
-266 705 0
267 -817 -264 0
-267 817 0
-267 264 0
268 -783 -32 0
-268 783 0
-268 32 0
269 -268 -10 0
-269 268 0
-269 10 0
270 -818 -267 0
-270 818 0
-270 267 0
271 -28 -17 0
-271 28 0
-271 17 0
272 -271 -9 0
-272 271 0
-272 9 0
273 -819 -270 0
-273 819 0
-273 270 0
274 -35 -22 0
-274 35 0
-274 22 0
275 -274 -770 0
-275 274 0
-275 770 0
276 -820 -273 0
-276 820 0
-276 273 0
277 -755 -15 0
-277 755 0
-277 15 0
278 -277 -701 0
-278 277 0
-278 701 0
279 -821 -276 0
-279 821 0
-279 276 0
280 -46 -768 0
-280 46 0
-280 768 0
281 -280 -733 0
-281 280 0
-281 733 0
282 -822 -279 0
-282 822 0
-282 279 0
283 -813 -43 0
-283 813 0
-283 43 0
284 -283 -16 0
-284 283 0
-284 16 0
285 -823 -282 0
-285 823 0
-285 282 0
286 -41 -40 0
-286 41 0
-286 40 0
287 -286 -19 0
-287 286 0
-287 19 0
288 -824 -285 0
-288 824 0
-288 285 0
289 -36 -7 0
-289 36 0
-289 7 0
290 -289 -38 0
-290 289 0
-290 38 0
291 -825 -288 0
-291 825 0
-291 288 0
292 -40 -728 0
-292 40 0
-292 728 0
293 -292 -826 0
-293 292 0
-293 826 0
294 -827 -291 0
-294 827 0
-294 291 0
295 -742 -17 0
-295 742 0
-295 17 0
296 -295 -45 0
-296 295 0
-296 45 0
297 -828 -294 0
-297 828 0
-297 294 0
298 -816 -735 0
-298 816 0
-298 735 0
299 -298 -3 0
-299 298 0
-299 3 0
300 -829 -297 0
-300 829 0
-300 297 0
301 -813 -15 0
-301 813 0
-301 15 0
302 -301 -8 0
-302 301 0
-302 8 0
303 -830 -300 0
-303 830 0
-303 300 0
304 -49 -25 0
-304 49 0
-304 25 0
305 -304 -770 0
-305 304 0
-305 770 0
306 -831 -303 0
-306 831 0
-306 303 0
307 -48 -700 0
-307 48 0
-307 700 0
308 -307 -766 0
-308 307 0
-308 766 0
309 -832 -306 0
-309 832 0
-309 306 0
310 -742 -833 0
-310 742 0
-310 833 0
311 -310 -834 0
-311 310 0
-311 834 0
312 -835 -309 0
-312 835 0
-312 309 0
313 -41 -785 0
-313 41 0
-313 785 0
314 -313 -803 0
-314 313 0
-314 803 0
315 -836 -312 0
-315 836 0
-315 312 0
316 -760 -710 0
-316 760 0
-316 710 0
317 -316 -711 0
-317 316 0
-317 711 0
318 -837 -315 0
-318 837 0
-318 315 0
319 -741 -13 0
-319 741 0
-319 13 0
320 -319 -23 0
-320 319 0
-320 23 0
321 -838 -318 0
-321 838 0
-321 318 0
322 -4 -3 0
-322 4 0
-322 3 0
323 -322 -33 0
-323 322 0
-323 33 0
324 -839 -321 0
-324 839 0
-324 321 0
325 -21 -18 0
-325 21 0
-325 18 0
326 -325 -26 0
-326 325 0
-326 26 0
327 -840 -324 0
-327 840 0
-327 324 0
328 -44 -700 0
-328 44 0
-328 700 0
329 -328 -6 0
-329 328 0
-329 6 0
330 -841 -327 0
-330 841 0
-330 327 0
331 -803 -13 0
-331 803 0
-331 13 0
332 -331 -733 0
-332 331 0
-332 733 0
333 -842 -330 0
-333 842 0
-333 330 0
334 -41 -713 0
-334 41 0
-334 713 0
335 -334 -834 0
-335 334 0
-335 834 0
336 -843 -333 0
-336 843 0
-336 333 0
337 -22 -738 0
-337 22 0
-337 738 0
338 -337 -721 0
-338 337 0
-338 721 0
339 -844 -336 0
-339 844 0
-339 336 0
340 -30 -760 0
-340 30 0
-340 760 0
341 -340 -45 0
-341 340 0
-341 45 0
342 -845 -339 0
-342 845 0
-342 339 0
343 -715 -14 0
-343 715 0
-343 14 0
344 -343 -30 0
-344 343 0
-344 30 0
345 -846 -342 0
-345 846 0
-345 342 0
346 -42 -700 0
-346 42 0
-346 700 0
347 -346 -39 0
-347 346 0
-347 39 0
348 -847 -345 0
-348 847 0
-348 345 0
349 -44 -774 0
-349 44 0
-349 774 0
350 -349 -711 0
-350 349 0
-350 711 0
351 -848 -348 0
-351 848 0
-351 348 0
352 -43 -4 0
-352 43 0
-352 4 0
353 -352 -735 0
-353 352 0
-353 735 0
354 -849 -351 0
-354 849 0
-354 351 0
355 -800 -710 0
-355 800 0
-355 710 0
356 -355 -730 0
-356 355 0
-356 730 0
357 -850 -354 0
-357 850 0
-357 354 0
358 -43 -28 0
-358 43 0
-358 28 0
359 -358 -48 0
-359 358 0
-359 48 0
360 -851 -357 0
-360 851 0
-360 357 0
361 -777 -755 0
-361 777 0
-361 755 0
362 -361 -721 0
-362 361 0
-362 721 0
363 -852 -360 0
-363 852 0
-363 360 0
364 -47 -755 0
-364 47 0
-364 755 0
365 -364 -33 0
-365 364 0
-365 33 0
366 -853 -363 0
-366 853 0
-366 363 0
367 -766 -744 0
-367 766 0
-367 744 0
368 -367 -45 0
-368 367 0
-368 45 0
369 -854 -366 0
-369 854 0
-369 366 0
370 -833 -5 0
-370 833 0
-370 5 0
371 -370 -48 0
-371 370 0
-371 48 0
372 -855 -369 0
-372 855 0
-372 369 0
373 -32 -27 0
-373 32 0
-373 27 0
374 -373 -47 0
-374 373 0
-374 47 0
375 -856 -372 0
-375 856 0
-375 372 0
376 -15 -7 0
-376 15 0
-376 7 0
377 -376 -24 0
-377 376 0
-377 24 0
378 -857 -375 0
-378 857 0
-378 375 0
379 -40 -19 0
-379 40 0
-379 19 0
380 -379 -772 0
-380 379 0
-380 772 0
381 -858 -378 0
-381 858 0
-381 378 0
382 -50 -750 0
-382 50 0
-382 750 0
383 -382 -733 0
-383 382 0
-383 733 0
384 -859 -381 0
-384 859 0
-384 381 0
385 -749 -752 0
-385 749 0
-385 752 0
386 -385 -29 0
-386 385 0
-386 29 0
387 -860 -384 0
-387 860 0
-387 384 0
388 -760 -9 0
-388 760 0
-388 9 0
389 -388 -50 0
-389 388 0
-389 50 0
390 -861 -387 0
-390 861 0
-390 387 0
391 -713 -772 0
-391 713 0
-391 772 0
392 -391 -33 0
-392 391 0
-392 33 0
393 -862 -390 0
-393 862 0
-393 390 0
394 -37 -755 0
-394 37 0
-394 755 0
395 -394 -750 0
-395 394 0
-395 750 0
396 -863 -393 0
-396 863 0
-396 393 0
397 -864 -27 0
-397 864 0
-397 27 0
398 -397 -25 0
-398 397 0
-398 25 0
399 -865 -396 0
-399 865 0
-399 396 0
400 -757 -21 0
-400 757 0
-400 21 0
401 -400 -833 0
-401 400 0
-401 833 0
402 -866 -399 0
-402 866 0
-402 399 0
403 -37 -760 0
-403 37 0
-403 760 0
404 -403 -762 0
-404 403 0
-404 762 0
405 -867 -402 0
-405 867 0
-405 402 0
406 -47 -783 0
-406 47 0
-406 783 0
407 -406 -752 0
-407 406 0
-407 752 0
408 -868 -405 0
-408 868 0
-408 405 0
409 -777 -2 0
-409 777 0
-409 2 0
410 -409 -713 0
-410 409 0
-410 713 0
411 -869 -408 0
-411 869 0
-411 408 0
412 -800 -16 0
-412 800 0
-412 16 0
413 -412 -735 0
-413 412 0
-413 735 0
414 -870 -411 0
-414 870 0
-414 411 0
415 -783 -720 0
-415 783 0
-415 720 0
416 -415 -704 0
-416 415 0
-416 704 0
417 -871 -414 0
-417 871 0
-417 414 0
418 -27 -13 0
-418 27 0
-418 13 0
419 -418 -23 0
-419 418 0
-419 23 0
420 -872 -417 0
-420 872 0
-420 417 0
421 -775 -16 0
-421 775 0
-421 16 0
422 -421 -826 0
-422 421 0
-422 826 0
423 -873 -420 0
-423 873 0
-423 420 0
424 -49 -864 0
-424 49 0
-424 864 0
425 -424 -37 0
-425 424 0
-425 37 0
426 -874 -423 0
-426 874 0
-426 423 0
427 -759 -17 0
-427 759 0
-427 17 0
428 -427 -708 0
-428 427 0
-428 708 0
429 -875 -426 0
-429 875 0
-429 426 0
430 -32 -13 0
-430 32 0
-430 13 0
431 -430 -21 0
-431 430 0
-431 21 0
432 -876 -429 0
-432 876 0
-432 429 0
433 -813 -36 0
-433 813 0
-433 36 0
434 -433 -834 0
-434 433 0
-434 834 0
435 -877 -432 0
-435 877 0
-435 432 0
436 -43 -768 0
-436 43 0
-436 768 0
437 -436 -833 0
-437 436 0
-437 833 0
438 -878 -435 0
-438 878 0
-438 435 0
439 -23 -21 0
-439 23 0
-439 21 0
440 -439 -705 0
-440 439 0
-440 705 0
441 -879 -438 0
-441 879 0
-441 438 0
442 -27 -22 0
-442 27 0
-442 22 0
443 -442 -34 0
-443 442 0
-443 34 0
444 -880 -441 0
-444 880 0
-444 441 0
445 -757 -22 0
-445 757 0
-445 22 0
446 -445 -705 0
-446 445 0
-446 705 0
447 -881 -444 0
-447 881 0
-447 444 0
448 -774 -30 0
-448 774 0
-448 30 0
449 -448 -708 0
-449 448 0
-449 708 0
450 -882 -447 0
-450 882 0
-450 447 0
451 -28 -3 0
-451 28 0
-451 3 0
452 -451 -701 0
-452 451 0
-452 701 0
453 -883 -450 0
-453 883 0
-453 450 0
454 -741 -790 0
-454 741 0
-454 790 0
455 -454 -724 0
-455 454 0
-455 724 0
456 -884 -453 0
-456 884 0
-456 453 0
457 -768 -7 0
-457 768 0
-457 7 0
458 -457 -728 0
-458 457 0
-458 728 0
459 -885 -456 0
-459 885 0
-459 456 0
460 -28 -738 0
-460 28 0
-460 738 0
461 -460 -20 0
-461 460 0
-461 20 0
462 -886 -459 0
-462 886 0
-462 459 0
463 -34 -2 0
-463 34 0
-463 2 0
464 -463 -45 0
-464 463 0
-464 45 0
465 -887 -462 0
-465 887 0
-465 462 0
466 -755 -2 0
-466 755 0
-466 2 0
467 -466 -826 0
-467 466 0
-467 826 0
468 -888 -465 0
-468 888 0
-468 465 0
469 -749 -16 0
-469 749 0
-469 16 0
470 -469 -24 0
-470 469 0
-470 24 0
471 -889 -468 0
-471 889 0
-471 468 0
472 -46 -16 0
-472 46 0
-472 16 0
473 -472 -15 0
-473 472 0
-473 15 0
474 -890 -471 0
-474 890 0
-474 471 0
475 -22 -701 0
-475 22 0
-475 701 0
476 -475 -803 0
-476 475 0
-476 803 0
477 -891 -474 0
-477 891 0
-477 474 0
478 -36 -760 0
-478 36 0
-478 760 0
479 -478 -730 0
-479 478 0
-479 730 0
480 -892 -477 0
-480 892 0
-480 477 0
481 -18 -10 0
-481 18 0
-481 10 0
482 -481 -25 0
-482 481 0
-482 25 0
483 -893 -480 0
-483 893 0
-483 480 0
484 -47 -772 0
-484 47 0
-484 772 0
485 -484 -750 0
-485 484 0
-485 750 0
486 -894 -483 0
-486 894 0
-486 483 0
487 -44 -22 0
-487 44 0
-487 22 0
488 -487 -752 0
-488 487 0
-488 752 0
489 -895 -486 0
-489 895 0
-489 486 0
490 -26 -23 0
-490 26 0
-490 23 0
491 -490 -42 0
-491 490 0
-491 42 0
492 -896 -489 0
-492 896 0
-492 489 0
493 -44 -742 0
-493 44 0
-493 742 0
494 -493 -707 0
-494 493 0
-494 707 0
495 -897 -492 0
-495 897 0
-495 492 0
496 -40 -4 0
-496 40 0
-496 4 0
497 -496 -755 0
-497 496 0
-497 755 0
498 -898 -495 0
-498 898 0
-498 495 0
499 -749 -833 0
-499 749 0
-499 833 0
500 -499 -704 0
-500 499 0
-500 704 0
501 -899 -498 0
-501 899 0
-501 498 0
502 -49 -738 0
-502 49 0
-502 738 0
503 -502 -730 0
-503 502 0
-503 730 0
504 -900 -501 0
-504 900 0
-504 501 0
505 -741 -752 0
-505 741 0
-505 752 0
506 -505 -6 0
-506 505 0
-506 6 0
507 -901 -504 0
-507 901 0
-507 504 0
508 -46 -775 0
-508 46 0
-508 775 0
509 -508 -14 0
-509 508 0
-509 14 0
510 -902 -507 0
-510 902 0
-510 507 0
511 -749 -715 0
-511 749 0
-511 715 0
512 -511 -733 0
-512 511 0
-512 733 0
513 -903 -510 0
-513 903 0
-513 510 0
514 -775 -17 0
-514 775 0
-514 17 0
515 -514 -11 0
-515 514 0
-515 11 0
516 -904 -513 0
-516 904 0
-516 513 0
517 -770 -18 0
-517 770 0
-517 18 0
518 -517 -33 0
-518 517 0
-518 33 0
519 -905 -516 0
-519 905 0
-519 516 0
520 -47 -36 0
-520 47 0
-520 36 0
521 -520 -7 0
-521 520 0
-521 7 0
522 -906 -519 0
-522 906 0
-522 519 0
523 -826 -10 0
-523 826 0
-523 10 0
524 -523 -33 0
-524 523 0
-524 33 0
525 -907 -522 0
-525 907 0
-525 522 0
526 -217 -14 0
-526 217 0
-526 14 0
527 -908 -525 0
-527 908 0
-527 525 0
528 -813 -723 0
-528 813 0
-528 723 0
529 -528 -14 0
-529 528 0
-529 14 0
530 -909 -527 0
-530 909 0
-530 527 0
531 -816 -744 0
-531 816 0
-531 744 0
532 -531 -30 0
-532 531 0
-532 30 0
533 -910 -530 0
-533 910 0
-533 530 0
534 -742 -13 0
-534 742 0
-534 13 0
535 -534 -770 0
-535 534 0
-535 770 0
536 -911 -533 0
-536 911 0
-536 533 0
537 -783 -17 0
-537 783 0
-537 17 0
538 -537 -833 0
-538 537 0
-538 833 0
539 -912 -536 0
-539 912 0
-539 536 0
540 -813 -22 0
-540 813 0
-540 22 0
541 -540 -707 0
-541 540 0
-541 707 0
542 -913 -539 0
-542 913 0
-542 539 0
543 -37 -32 0
-543 37 0
-543 32 0
544 -543 -803 0
-544 543 0
-544 803 0
545 -914 -542 0
-545 914 0
-545 542 0
546 -768 -18 0
-546 768 0
-546 18 0
547 -546 -728 0
-547 546 0
-547 728 0
548 -915 -545 0
-548 915 0
-548 545 0
549 -790 -710 0
-549 790 0
-549 710 0
550 -549 -735 0
-550 549 0
-550 735 0
551 -916 -548 0
-551 916 0
-551 548 0
552 -813 -752 0
-552 813 0
-552 752 0
553 -552 -785 0
-553 552 0
-553 785 0
554 -917 -551 0
-554 917 0
-554 551 0
555 -800 -749 0
-555 800 0
-555 749 0
556 -555 -735 0
-556 555 0
-556 735 0
557 -918 -554 0
-557 918 0
-557 554 0
558 -768 -752 0
-558 768 0
-558 752 0
559 -558 -42 0
-559 558 0
-559 42 0
560 -919 -557 0
-560 919 0
-560 557 0
561 -813 -720 0
-561 813 0
-561 720 0
562 -561 -723 0
-562 561 0
-562 723 0
563 -920 -560 0
-563 920 0
-563 560 0
564 -15 -1 0
-564 15 0
-564 1 0
565 -564 -711 0
-565 564 0
-565 711 0
566 -921 -563 0
-566 921 0
-566 563 0
567 -742 -738 0
-567 742 0
-567 738 0
568 -567 -9 0
-568 567 0
-568 9 0
569 -922 -566 0
-569 922 0
-569 566 0
570 -759 -704 0
-570 759 0
-570 704 0
571 -570 -762 0
-571 570 0
-571 762 0
572 -923 -569 0
-572 923 0
-572 569 0
573 -833 -700 0
-573 833 0
-573 700 0
574 -573 -33 0
-574 573 0
-574 33 0
575 -924 -572 0
-575 924 0
-575 572 0
576 -34 -7 0
-576 34 0
-576 7 0
577 -576 -762 0
-577 576 0
-577 762 0
578 -925 -575 0
-578 925 0
-578 575 0
579 -34 -32 0
-579 34 0
-579 32 0
580 -579 -42 0
-580 579 0
-580 42 0
581 -926 -578 0
-581 926 0
-581 578 0
582 -790 -14 0
-582 790 0
-582 14 0
583 -582 -728 0
-583 582 0
-583 728 0
584 -927 -581 0
-584 927 0
-584 581 0
585 -775 -2 0
-585 775 0
-585 2 0
586 -585 -766 0
-586 585 0
-586 766 0
587 -928 -584 0
-587 928 0
-587 584 0
588 -738 -704 0
-588 738 0
-588 704 0
589 -588 -766 0
-589 588 0
-589 766 0
590 -929 -587 0
-590 929 0
-590 587 0
591 -816 -32 0
-591 816 0
-591 32 0
592 -591 -790 0
-592 591 0
-592 790 0
593 -930 -590 0
-593 930 0
-593 590 0
594 -16 -1 0
-594 16 0
-594 1 0
595 -594 -800 0
-595 594 0
-595 800 0
596 -931 -593 0
-596 931 0
-596 593 0
597 -35 -25 0
-597 35 0
-597 25 0
598 -597 -15 0
-598 597 0
-598 15 0
599 -932 -596 0
-599 932 0
-599 596 0
600 -9 -701 0
-600 9 0
-600 701 0
601 -600 -730 0
-601 600 0
-601 730 0
602 -933 -599 0
-602 933 0
-602 599 0
603 -41 -715 0
-603 41 0
-603 715 0
604 -603 -708 0
-604 603 0
-604 708 0
605 -934 -602 0
-605 934 0
-605 602 0
606 -8 -744 0
-606 8 0
-606 744 0
607 -606 -730 0
-607 606 0
-607 730 0
608 -935 -605 0
-608 935 0
-608 605 0
609 -47 -736 0
-609 47 0
-609 736 0
610 -609 -23 0
-610 609 0
-610 23 0
611 -936 -608 0
-611 936 0
-611 608 0
612 -49 -41 0
-612 49 0
-612 41 0
613 -612 -744 0
-613 612 0
-613 744 0
614 -937 -611 0
-614 937 0
-614 611 0
615 -43 -760 0
-615 43 0
-615 760 0
616 -615 -711 0
-616 615 0
-616 711 0
617 -938 -614 0
-617 938 0
-617 614 0
618 -16 -10 0
-618 16 0
-618 10 0
619 -618 -699 0
-619 618 0
-619 699 0
620 -939 -617 0
-620 939 0
-620 617 0
621 -469 -826 0
-621 469 0
-621 826 0
622 -940 -620 0
-622 940 0
-622 620 0
623 -43 -775 0
-623 43 0
-623 775 0
624 -623 -707 0
-624 623 0
-624 707 0
625 -941 -622 0
-625 941 0
-625 622 0
626 -310 -750 0
-626 310 0
-626 750 0
627 -942 -625 0
-627 942 0
-627 625 0
628 -759 -721 0
-628 759 0
-628 721 0
629 -628 -708 0
-629 628 0
-629 708 0
630 -943 -627 0
-630 943 0
-630 627 0
631 -19 -13 0
-631 19 0
-631 13 0
632 -631 -2 0
-632 631 0
-632 2 0
633 -944 -630 0
-633 944 0
-633 630 0
634 -759 -700 0
-634 759 0
-634 700 0
635 -634 -5 0
-635 634 0
-635 5 0
636 -945 -633 0
-636 945 0
-636 633 0
637 -834 -30 0
-637 834 0
-637 30 0
638 -637 -770 0
-638 637 0
-638 770 0
639 -946 -636 0
-639 946 0
-639 636 0
640 -23 -720 0
-640 23 0
-640 720 0
641 -640 -730 0
-641 640 0
-641 730 0
642 -947 -639 0
-642 947 0
-642 639 0
643 -813 -28 0
-643 813 0
-643 28 0
644 -643 -31 0
-644 643 0
-644 31 0
645 -948 -642 0
-645 948 0
-645 642 0
646 -199 -713 0
-646 199 0
-646 713 0
647 -949 -645 0
-647 949 0
-647 645 0
648 -46 -720 0
-648 46 0
-648 720 0
649 -648 -750 0
-649 648 0
-649 750 0
650 -950 -647 0
-650 950 0
-650 647 0
651 -18 -15 0
-651 18 0
-651 15 0
652 -651 -766 0
-652 651 0
-652 766 0
653 -951 -650 0
-653 951 0
-653 650 0
654 -35 -27 0
-654 35 0
-654 27 0
655 -654 -803 0
-655 654 0
-655 803 0
656 -952 -653 0
-656 952 0
-656 653 0
657 -742 -35 0
-657 742 0
-657 35 0
658 -657 -755 0
-658 657 0
-658 755 0
659 -953 -656 0
-659 953 0
-659 656 0
660 -17 -10 0
-660 17 0
-660 10 0
661 -660 -9 0
-661 660 0
-661 9 0
662 -954 -659 0
-662 954 0
-662 659 0
663 -27 -715 0
-663 27 0
-663 715 0
664 -663 -22 0
-664 663 0
-664 22 0
665 -955 -662 0
-665 955 0
-665 662 0
666 -15 -700 0
-666 15 0
-666 700 0
667 -666 -728 0
-667 666 0
-667 728 0
668 -956 -665 0
-668 956 0
-668 665 0
669 -26 -21 0
-669 26 0
-669 21 0
670 -669 -750 0
-670 669 0
-670 750 0
671 -957 -668 0
-671 957 0
-671 668 0
672 -738 -699 0
-672 738 0
-672 699 0
673 -672 -704 0
-673 672 0
-673 704 0
674 -958 -671 0
-674 958 0
-674 671 0
675 -757 -1 0
-675 757 0
-675 1 0
676 -675 -755 0
-676 675 0
-676 755 0
677 -959 -674 0
-677 959 0
-677 674 0
678 -759 -768 0
-678 759 0
-678 768 0
679 -678 -705 0
-679 678 0
-679 705 0
680 -960 -677 0
-680 960 0
-680 677 0
681 -742 -10 0
-681 742 0
-681 10 0
682 -681 -720 0
-682 681 0
-682 720 0
683 -961 -680 0
-683 961 0
-683 680 0
684 -41 -27 0
-684 41 0
-684 27 0
685 -684 -4 0
-685 684 0
-685 4 0
686 -962 -683 0
-686 962 0
-686 683 0
687 -35 -738 0
-687 35 0
-687 738 0
688 -687 -8 0
-688 687 0
-688 8 0
689 -963 -686 0
-689 963 0
-689 686 0
690 -759 -790 0
-690 759 0
-690 790 0
691 -690 -762 0
-691 690 0
-691 762 0
692 -964 -689 0
-692 964 0
-692 689 0
693 -800 -715 0
-693 800 0
-693 715 0
694 -693 -834 0
-694 693 0
-694 834 0
695 -965 -692 0
-695 965 0
-695 692 0
696 -728 -699 0
-696 728 0
-696 699 0
697 -696 -50 0
-697 696 0
-697 50 0
698 -966 -695 0
-698 966 0
-698 695 0
-699 -2 0
699 2 0
-700 -1 0
700 1 0
-701 -5 0
701 5 0
-702 -54 0
702 54 0
-703 -52 0
703 52 0
-704 -8 0
704 8 0
-705 -9 0
705 9 0
-706 -57 0
706 57 0
-707 -11 0
707 11 0
-708 -12 0
708 12 0
-709 -60 0
709 60 0
-710 -13 0
710 13 0
-711 -3 0
711 3 0
-712 -63 0
712 63 0
-713 -15 0
713 15 0
-714 -66 0
714 66 0
-715 -16 0
715 16 0
-716 -69 0
716 69 0
-717 -72 0
717 72 0
-718 -75 0
718 75 0
-719 -78 0
719 78 0
-720 -19 0
720 19 0
-721 -24 0
721 24 0
-722 -81 0
722 81 0
-723 -25 0
723 25 0
-724 -26 0
724 26 0
-725 -84 0
725 84 0
-726 -87 0
726 87 0
-727 -90 0
727 90 0
-728 -30 0
728 30 0
-729 -93 0
729 93 0
-730 -6 0
730 6 0
-731 -96 0
731 96 0
-732 -99 0
732 99 0
-733 -33 0
733 33 0
-734 -102 0
734 102 0
-735 -34 0
735 34 0
-736 -10 0
736 10 0
-737 -105 0
737 105 0
-738 -18 0
738 18 0
-739 -108 0
739 108 0
-740 -111 0
740 111 0
-741 -37 0
741 37 0
-742 -36 0
742 36 0
-743 -114 0
743 114 0
-744 -4 0
744 4 0
-745 -117 0
745 117 0
-746 -120 0
746 120 0
-747 -123 0
747 123 0
-748 -126 0
748 126 0
-749 -40 0
749 40 0
-750 -38 0
750 38 0
-751 -129 0
751 129 0
-752 -20 0
752 20 0
-753 -132 0
753 132 0
-754 -134 0
754 134 0
-755 -17 0
755 17 0
-756 -137 0
756 137 0
-757 -35 0
757 35 0
-758 -140 0
758 140 0
-759 -41 0
759 41 0
-760 -21 0
760 21 0
-761 -143 0
761 143 0
-762 -42 0
762 42 0
-763 -146 0
763 146 0
-764 -149 0
764 149 0
-765 -152 0
765 152 0
-766 -39 0
766 39 0
-767 -155 0
767 155 0
-768 -27 0
768 27 0
-769 -158 0
769 158 0
-770 -29 0
770 29 0
-771 -161 0
771 161 0
-772 -7 0
772 7 0
-773 -164 0
773 164 0
-774 -43 0
774 43 0
-775 -22 0
775 22 0
-776 -167 0
776 167 0
-777 -23 0
777 23 0
-778 -170 0
778 170 0
-779 -173 0
779 173 0
-780 -176 0
780 176 0
-781 -179 0
781 179 0
-782 -182 0
782 182 0
-783 -44 0
783 44 0
-784 -185 0
784 185 0
-785 -31 0
785 31 0
-786 -188 0
786 188 0
-787 -191 0
787 191 0
-788 -194 0
788 194 0
-789 -197 0
789 197 0
-790 -28 0
790 28 0
-791 -200 0
791 200 0
-792 -203 0
792 203 0
-793 -206 0
793 206 0
-794 -209 0
794 209 0
-795 -212 0
795 212 0
-796 -215 0
796 215 0
-797 -218 0
797 218 0
-798 -221 0
798 221 0
-799 -224 0
799 224 0
-800 -47 0
800 47 0
-801 -227 0
801 227 0
-802 -230 0
802 230 0
-803 -48 0
803 48 0
-804 -233 0
804 233 0
-805 -236 0
805 236 0
-806 -239 0
806 239 0
-807 -242 0
807 242 0
-808 -245 0
808 245 0
-809 -248 0
809 248 0
-810 -251 0
810 251 0
-811 -254 0
811 254 0
-812 -257 0
812 257 0
-813 -46 0
813 46 0
-814 -260 0
814 260 0
-815 -263 0
815 263 0
-816 -49 0
816 49 0
-817 -266 0
817 266 0
-818 -269 0
818 269 0
-819 -272 0
819 272 0
-820 -275 0
820 275 0
-821 -278 0
821 278 0
-822 -281 0
822 281 0
-823 -284 0
823 284 0
-824 -287 0
824 287 0
-825 -290 0
825 290 0
-826 -45 0
826 45 0
-827 -293 0
827 293 0
-828 -296 0
828 296 0
-829 -299 0
829 299 0
-830 -302 0
830 302 0
-831 -305 0
831 305 0
-832 -308 0
832 308 0
-833 -14 0
833 14 0
-834 -50 0
834 50 0
-835 -311 0
835 311 0
-836 -314 0
836 314 0
-837 -317 0
837 317 0
-838 -320 0
838 320 0
-839 -323 0
839 323 0
-840 -326 0
840 326 0
-841 -329 0
841 329 0
-842 -332 0
842 332 0
-843 -335 0
843 335 0
-844 -338 0
844 338 0
-845 -341 0
845 341 0
-846 -344 0
846 344 0
-847 -347 0
847 347 0
-848 -350 0
848 350 0
-849 -353 0
849 353 0
-850 -356 0
850 356 0
-851 -359 0
851 359 0
-852 -362 0
852 362 0
-853 -365 0
853 365 0
-854 -368 0
854 368 0
-855 -371 0
855 371 0
-856 -374 0
856 374 0
-857 -377 0
857 377 0
-858 -380 0
858 380 0
-859 -383 0
859 383 0
-860 -386 0
860 386 0
-861 -389 0
861 389 0
-862 -392 0
862 392 0
-863 -395 0
863 395 0
-864 -32 0
864 32 0
-865 -398 0
865 398 0
-866 -401 0
866 401 0
-867 -404 0
867 404 0
-868 -407 0
868 407 0
-869 -410 0
869 410 0
-870 -413 0
870 413 0
-871 -416 0
871 416 0
-872 -419 0
872 419 0
-873 -422 0
873 422 0
-874 -425 0
874 425 0
-875 -428 0
875 428 0
-876 -431 0
876 431 0
-877 -434 0
877 434 0
-878 -437 0
878 437 0
-879 -440 0
879 440 0
-880 -443 0
880 443 0
-881 -446 0
881 446 0
-882 -449 0
882 449 0
-883 -452 0
883 452 0
-884 -455 0
884 455 0
-885 -458 0
885 458 0
-886 -461 0
886 461 0
-887 -464 0
887 464 0
-888 -467 0
888 467 0
-889 -470 0
889 470 0
-890 -473 0
890 473 0
-891 -476 0
891 476 0
-892 -479 0
892 479 0
-893 -482 0
893 482 0
-894 -485 0
894 485 0
-895 -488 0
895 488 0
-896 -491 0
896 491 0
-897 -494 0
897 494 0
-898 -497 0
898 497 0
-899 -500 0
899 500 0
-900 -503 0
900 503 0
-901 -506 0
901 506 0
-902 -509 0
902 509 0
-903 -512 0
903 512 0
-904 -515 0
904 515 0
-905 -518 0
905 518 0
-906 -521 0
906 521 0
-907 -524 0
907 524 0
-908 -526 0
908 526 0
-909 -529 0
909 529 0
-910 -532 0
910 532 0
-911 -535 0
911 535 0
-912 -538 0
912 538 0
-913 -541 0
913 541 0
-914 -544 0
914 544 0
-915 -547 0
915 547 0
-916 -550 0
916 550 0
-917 -553 0
917 553 0
-918 -556 0
918 556 0
-919 -559 0
919 559 0
-920 -562 0
920 562 0
-921 -565 0
921 565 0
-922 -568 0
922 568 0
-923 -571 0
923 571 0
-924 -574 0
924 574 0
-925 -577 0
925 577 0
-926 -580 0
926 580 0
-927 -583 0
927 583 0
-928 -586 0
928 586 0
-929 -589 0
929 589 0
-930 -592 0
930 592 0
-931 -595 0
931 595 0
-932 -598 0
932 598 0
-933 -601 0
933 601 0
-934 -604 0
934 604 0
-935 -607 0
935 607 0
-936 -610 0
936 610 0
-937 -613 0
937 613 0
-938 -616 0
938 616 0
-939 -619 0
939 619 0
-940 -621 0
940 621 0
-941 -624 0
941 624 0
-942 -626 0
942 626 0
-943 -629 0
943 629 0
-944 -632 0
944 632 0
-945 -635 0
945 635 0
-946 -638 0
946 638 0
-947 -641 0
947 641 0
-948 -644 0
948 644 0
-949 -646 0
949 646 0
-950 -649 0
950 649 0
-951 -652 0
951 652 0
-952 -655 0
952 655 0
-953 -658 0
953 658 0
-954 -661 0
954 661 0
-955 -664 0
955 664 0
-956 -667 0
956 667 0
-957 -670 0
957 670 0
-958 -673 0
958 673 0
-959 -676 0
959 676 0
-960 -679 0
960 679 0
-961 -682 0
961 682 0
-962 -685 0
962 685 0
-963 -688 0
963 688 0
-964 -691 0
964 691 0
-965 -694 0
965 694 0
-966 -697 0
966 697 0
698 0
